Cost: 1687
0-32-28-50-27-19-46-12-35-20-21-48-49-22-23-24-51-30-53-31-55-33-0
0-38-2-4-34-56-0
0-3-14-47-5-6-39-7-36-8-40-41-43-44-11-45-10-60-15-16-17-18-61-1-37-0
Cost: 1687
0-38-2-4-34-56-0
0-32-28-50-54-26-19-46-12-35-20-21-48-49-22-23-24-51-30-53-31-33-0
0-3-14-47-6-39-5-7-36-40-41-9-43-44-11-45-10-60-15-16-17-18-61-1-37-0
Cost: 1687
0-38-2-4-34-56-0
0-32-28-50-26-19-46-12-35-20-21-48-49-22-23-24-51-30-53-31-55-33-0
0-3-14-47-6-39-5-7-36-8-40-41-43-44-11-45-10-60-15-16-17-18-61-1-37-0
Cost: 1705
0-38-2-3-64-15-16-17-18-61-1-37-0
0-4-39-5-7-36-8-40-41-43-44-11-45-12-35-20-19-46-10-14-47-6-0
0-34-32-28-50-54-27-21-48-49-22-23-24-51-30-53-31-33-56-0
Cost: 1690
0-4-39-5-6-58-34-56-0
0-38-2-3-14-47-7-36-8-40-41-43-44-11-45-10-15-16-17-18-61-1-37-0
0-32-28-50-26-19-46-12-35-20-21-48-49-22-23-24-51-30-53-31-55-33-0
Cost: 1687
0-32-28-50-27-19-46-12-35-20-21-48-49-22-23-24-51-30-53-31-55-33-0
0-38-2-4-34-56-0
0-3-14-47-6-39-5-7-36-8-40-41-43-44-11-45-10-60-15-16-17-18-61-1-37-0
Cost: 1690
0-38-3-14-47-7-36-40-41-9-43-44-11-45-10-60-15-16-17-18-61-1-37-0
0-32-50-28-27-19-46-12-35-20-21-48-49-22-23-24-51-30-53-31-55-33-0
0-2-4-39-5-6-34-56-0
Cost: 1690
0-38-3-14-47-7-36-40-41-9-43-44-11-45-10-60-15-16-17-18-61-1-37-0
0-32-50-28-27-19-46-12-35-20-21-48-49-22-23-24-51-30-53-31-55-33-0
0-2-4-39-5-6-34-56-0
Cost: 1687
0-32-28-50-27-19-46-12-35-20-21-48-49-22-23-24-51-30-53-31-55-33-0
0-38-2-4-34-56-0
0-3-14-47-6-39-5-7-36-8-40-41-43-44-11-45-10-60-15-16-17-18-61-1-37-0
Cost: 1687
0-38-2-4-34-56-0
0-32-28-50-26-19-46-12-35-20-21-48-49-22-23-24-51-30-53-31-55-33-0
0-3-14-47-6-39-5-7-36-8-40-41-43-44-11-45-10-60-15-16-17-18-61-1-37-0
Cost: 1687
0-38-2-4-34-56-0
0-32-50-28-26-19-46-12-35-20-21-48-49-22-23-24-51-30-53-31-55-33-0
0-3-14-47-6-39-5-7-36-8-40-41-43-44-11-45-10-60-15-16-17-18-61-1-37-0
Cost: 1690
0-32-50-28-26-19-46-12-35-20-21-48-49-22-23-24-51-30-53-31-55-33-0
0-38-4-39-5-6-34-56-0
0-2-3-14-47-7-36-40-41-9-43-44-11-45-10-60-15-16-17-18-61-1-37-0
Cost: 1690
0-38-3-14-47-7-36-8-40-41-43-44-11-45-10-60-15-16-17-18-1-37-0
0-2-4-39-5-6-58-34-56-0
0-32-54-28-50-27-19-46-12-35-20-21-48-49-22-23-24-51-30-53-31-33-0
Cost: 1705
0-34-32-50-54-28-27-21-48-49-22-23-24-51-30-53-31-55-33-0
0-38-2-3-15-16-17-18-61-1-37-0
0-4-39-5-7-36-8-40-41-43-44-11-45-12-35-20-19-46-10-60-14-47-6-0
Cost: 1690
0-38-3-14-47-7-36-8-40-41-43-44-11-45-10-60-15-16-17-18-1-37-0
0-2-4-39-5-6-58-34-56-0
0-32-54-28-50-27-19-46-12-35-20-21-48-49-22-23-24-51-30-53-31-33-0
Cost: 1687
0-38-2-4-34-56-0
0-32-50-28-26-19-46-12-35-20-21-48-49-22-23-24-51-30-53-31-55-33-0
0-3-14-47-6-39-5-7-36-8-40-41-43-44-11-45-10-60-15-16-17-18-61-1-37-0
Cost: 1687
0-38-2-4-34-56-0
0-32-50-28-26-19-46-12-35-20-21-48-49-22-23-24-51-30-53-31-55-33-0
0-3-14-47-6-39-5-7-36-8-40-41-43-44-11-45-10-60-15-16-17-18-61-1-37-0
Cost: 1690
0-38-3-14-47-7-36-8-40-41-43-44-11-45-10-60-15-16-17-18-1-37-0
0-2-4-39-5-6-58-34-56-0
0-32-54-28-50-27-19-46-12-35-20-21-48-49-22-23-24-51-30-53-31-33-0
Cost: 1687
0-3-14-47-5-6-39-7-36-8-40-41-43-44-11-45-10-60-15-16-17-18-61-1-37-0
0-38-2-4-34-56-0
0-32-50-28-27-19-46-12-35-20-21-48-49-22-23-24-51-30-53-31-55-33-0
Cost: 1687
0-32-28-50-54-27-19-46-12-35-20-21-48-49-22-23-24-51-30-53-31-33-0
0-38-2-4-34-56-0
0-3-14-47-6-39-5-7-36-8-40-41-43-44-11-45-10-60-15-16-17-18-61-1-37-0
Cost: 1690
0-38-2-3-14-47-7-36-8-40-41-43-44-11-45-10-60-15-16-17-18-61-1-37-0
0-32-28-50-27-19-46-12-35-20-21-48-49-22-23-24-51-30-53-31-55-33-0
0-4-39-5-6-34-56-0
Cost: 1687
0-3-14-47-6-39-5-7-36-8-40-41-43-44-11-45-10-60-15-16-17-18-61-1-37-0
0-38-2-4-34-56-0
0-32-50-54-28-27-19-46-12-35-20-21-48-49-22-23-24-51-30-53-31-33-0
Cost: 1687
0-3-14-47-6-39-5-7-36-40-41-9-43-44-11-45-10-60-15-16-17-18-61-1-37-0
0-38-2-4-34-56-0
0-32-50-28-26-19-46-12-35-20-21-48-49-22-23-24-51-30-53-31-55-33-0
Cost: 1687
0-3-14-47-6-39-5-7-36-40-41-9-43-44-11-45-10-60-15-16-17-18-61-1-37-0
0-38-2-4-34-56-0
0-32-50-28-26-19-46-12-35-20-21-48-49-22-23-24-51-30-53-31-55-33-0
Cost: 1687
0-38-2-4-34-56-0
0-32-50-28-26-19-46-12-35-20-21-48-49-22-23-24-51-30-53-31-55-33-0
0-3-14-47-6-39-5-7-36-8-40-41-43-44-11-45-10-60-15-16-17-18-61-1-37-0
Cost: 1687
0-3-14-47-6-39-5-7-36-40-41-9-43-44-11-45-10-60-15-16-17-18-61-1-37-0
0-38-2-4-34-56-0
0-32-50-28-26-19-46-12-35-20-21-48-49-22-23-24-51-30-53-31-55-33-0
Cost: 1687
0-32-28-50-54-27-19-46-12-35-20-21-48-49-22-23-24-51-30-53-31-33-0
0-38-2-4-34-56-0
0-3-14-47-6-39-5-7-36-8-40-41-43-44-11-45-10-60-15-16-17-18-61-1-37-0
Cost: 1687
0-32-28-50-54-27-19-46-12-35-20-21-48-49-22-23-24-51-30-53-31-33-0
0-38-2-4-34-56-0
0-3-14-47-5-6-39-7-36-40-41-9-43-44-11-45-10-60-15-16-17-18-61-1-37-0
Cost: 1687
0-32-28-50-54-27-19-46-12-35-20-21-48-49-22-23-24-51-30-53-31-33-0
0-38-2-4-34-56-0
0-3-14-47-5-6-39-7-36-40-41-9-43-44-11-45-10-60-15-16-17-18-61-1-37-0
Cost: 1690
0-32-50-28-27-19-46-12-35-20-21-48-49-22-23-24-51-30-53-31-55-33-0
0-2-4-39-5-6-34-56-0
0-38-3-14-47-7-36-8-40-41-43-44-11-45-10-60-15-16-17-18-61-1-37-0
Cost: 1708
0-32-26-19-46-45-12-35-20-21-48-49-22-23-24-51-30-53-31-55-33-56-0
0-2-3-14-47-7-36-40-41-9-43-44-11-10-60-15-16-17-18-28-50-1-37-0
0-38-4-39-5-6-58-34-0
Cost: 1708
0-4-39-5-6-34-0
0-38-2-3-14-47-7-36-40-41-9-43-44-11-10-60-15-16-17-18-61-50-54-1-37-0
0-32-28-26-19-46-45-12-35-20-21-48-49-22-23-24-51-30-53-31-33-56-0
Cost: 1690
0-38-2-4-39-5-6-58-34-56-0
0-3-14-47-7-36-8-40-41-43-44-11-45-10-15-16-17-18-61-1-37-0
0-32-28-50-54-26-19-46-12-35-20-21-48-49-22-23-24-51-30-53-31-33-0
Cost: 1690
0-4-39-5-6-34-56-0
0-38-2-3-14-47-7-36-8-40-41-43-44-11-45-10-60-15-16-17-18-61-1-37-0
0-32-50-28-27-19-46-12-35-20-21-48-49-22-23-24-51-30-53-31-55-33-0
